(declare-fun var0 () String)
(declare-fun var1 () String)
(declare-fun var2 () String)
(declare-fun var3 () String)
(declare-fun var4 () String)
(declare-fun var5 () String)
(declare-fun var6 () String)
(declare-fun var7 () String)
(declare-fun var8 () String)
(declare-fun var9 () String)
(declare-fun var10 () String)
(declare-fun var11 () String)
(declare-fun var12 () String)
(declare-fun var13 () String)
(declare-fun var14 () String)
(declare-fun var15 () String)
(declare-fun var16 () String)
(declare-fun var17 () String)
(declare-fun var18 () String)
(declare-fun var19 () String)
(declare-fun var20 () String)
(declare-fun var21 () String)
(declare-fun var22 () String)
(declare-fun var23 () String)
(declare-fun var24 () String)
(declare-fun var25 () String)
(declare-fun var26 () String)
(declare-fun var27 () String)
(declare-fun var28 () String)
(declare-fun var29 () String)
(declare-fun var30 () String)
(declare-fun var31 () String)
(declare-fun var32 () String)
(declare-fun var33 () String)
(declare-fun var34 () String)
(declare-fun var35 () String)
(declare-fun var36 () String)
(declare-fun var37 () String)
(declare-fun var38 () String)
(declare-fun var39 () String)
(declare-fun var40 () String)
(declare-fun var41 () String)
(declare-fun var42 () String)
(declare-fun var43 () String)
(declare-fun var44 () String)
(declare-fun var45 () String)
(declare-fun var46 () String)
(declare-fun var47 () String)
(declare-fun var48 () String)
(declare-fun var49 () String)
(declare-fun var50 () String)
(declare-fun var51 () String)
(declare-fun var52 () String)
(declare-fun var53 () String)
(declare-fun var54 () String)
(declare-fun var55 () String)
(declare-fun var56 () String)
(declare-fun var57 () String)
(declare-fun var58 () String)
(declare-fun var59 () String)
(declare-fun var60 () String)
(declare-fun var61 () String)
(declare-fun var62 () String)
(declare-fun var63 () String)
(declare-fun var64 () String)
(declare-fun var65 () String)
(declare-fun var66 () String)
(declare-fun var67 () String)
(declare-fun var68 () String)
(declare-fun var69 () String)
(declare-fun var70 () String)
(declare-fun var71 () String)
(declare-fun var72 () String)
(declare-fun var73 () String)
(declare-fun var74 () String)
(declare-fun var75 () String)
(declare-fun var76 () String)
(declare-fun var77 () String)
(declare-fun var78 () String)
(declare-fun var79 () String)
(assert (= 0 (str.len var0)))
(assert (= 55 (str.len var1)))
(assert (= 11 (str.len var2)))
(assert (= 79 (str.len var3)))
(assert (= 44 (str.len var4)))
(assert (= 64 (str.len var5)))
(assert (= 79 (str.len var6)))
(assert (= 4 (str.len var7)))
(assert (= 70 (str.len var8)))
(assert (= 64 (str.len var9)))
(assert (= 32 (str.len var10)))
(assert (= 74 (str.len var11)))
(assert (= 90 (str.len var12)))
(assert (= 94 (str.len var13)))
(assert (= 60 (str.len var14)))
(assert (= 82 (str.len var15)))
(assert (= 23 (str.len var16)))
(assert (= 32 (str.len var17)))
(assert (= 32 (str.len var18)))
(assert (= 89 (str.len var19)))
(assert (= 93 (str.len var20)))
(assert (= 35 (str.len var21)))
(assert (= 28 (str.len var22)))
(assert (= 93 (str.len var23)))
(assert (= 89 (str.len var24)))
(assert (= 99 (str.len var25)))
(assert (= 88 (str.len var26)))
(assert (= 69 (str.len var27)))
(assert (= 20 (str.len var28)))
(assert (= 46 (str.len var29)))
(assert (= 35 (str.len var30)))
(assert (= 80 (str.len var31)))
(assert (= 65 (str.len var32)))
(assert (= 24 (str.len var33)))
(assert (= 51 (str.len var34)))
(assert (= 0 (str.len var35)))
(assert (= 48 (str.len var36)))
(assert (= 0 (str.len var37)))
(assert (= 67 (str.len var38)))
(assert (= 40 (str.len var39)))
(assert (= 20 (str.len var40)))
(assert (= 89 (str.len var41)))
(assert (= 77 (str.len var42)))
(assert (= 87 (str.len var43)))
(assert (= 33 (str.len var44)))
(assert (= 0 (str.len var45)))
(assert (= 36 (str.len var46)))
(assert (= 18 (str.len var47)))
(assert (= 98 (str.len var48)))
(assert (= 91 (str.len var49)))
(assert (= 60 (str.len var50)))
(assert (= 18 (str.len var51)))
(assert (= 18 (str.len var52)))
(assert (= 83 (str.len var53)))
(assert (= 0 (str.len var54)))
(assert (= 98 (str.len var55)))
(assert (= 35 (str.len var56)))
(assert (= 41 (str.len var57)))
(assert (= 4 (str.len var58)))
(assert (= 99 (str.len var59)))
(assert (= 99 (str.len var60)))
(assert (= 33 (str.len var61)))
(assert (= 86 (str.len var62)))
(assert (= 12 (str.len var63)))
(assert (= 81 (str.len var64)))
(assert (= 60 (str.len var65)))
(assert (= 93 (str.len var66)))
(assert (= 6 (str.len var67)))
(assert (= 98 (str.len var68)))
(assert (= 36 (str.len var69)))
(assert (= 42 (str.len var70)))
(assert (= 88 (str.len var71)))
(assert (= 54 (str.len var72)))
(assert (= 10 (str.len var73)))
(assert (= 80 (str.len var74)))
(assert (= 23 (str.len var75)))
(assert (= 94 (str.len var76)))
(assert (= 38 (str.len var77)))
(assert (= 8 (str.len var78)))
(assert (= 97 (str.len var79)))
(assert (= 60 (str.len (str.++ var51 var70))))
(assert (= 132 (str.len (str.++ var4 var26))))
(assert (= 171 (str.len (str.++ var13 var42))))
(assert (= 89 (str.len (str.++ var19 var54))))
(assert (= 130 (str.len (str.++ var10 var48))))
(assert (= 156 (str.len (str.++ var11 var15))))
(assert (= 193 (str.len (str.++ var76 var60))))
(assert (= 167 (str.len (str.++ var6 var71))))
(check-sat)